;; translated from ./bv/seq3.c.vmt
;; original benchmark available at: https://es-static.fbk.eu/people/griggio/ic3ia/index.html
;; author: Alberto Griggio <griggio@fbk.eu>
(set-logic HORN)
(declare-fun state (Bool Bool Bool Bool (_ BitVec 32) (_ BitVec 32) (_ BitVec 32) (_ BitVec 32) (_ BitVec 32) (_ BitVec 32) (_ BitVec 32) (_ BitVec 32)) Bool)
(assert (forall ((|.PC.1| Bool) (|.PC.0| Bool) (|.PC.0.next| Bool) (|.PC.1.next| Bool) (|.PC.2.next| Bool) (|.PC.3.next| Bool) (|n0__1$main| (_ BitVec 32)) (|n0__1$main.next| (_ BitVec 32)) (|k__7$main| (_ BitVec 32)) (|k__7$main.next| (_ BitVec 32)) (|i0__5$main| (_ BitVec 32)) (|i0__5$main.next| (_ BitVec 32)) (|i1__9$main.next| (_ BitVec 32)) (|i1__9$main| (_ BitVec 32)) (|j0__13$main.next| (_ BitVec 32)) (|j0__13$main| (_ BitVec 32)) (|__RET__$main.next| (_ BitVec 32)) (|__RET__$main| (_ BitVec 32)) (|n1__3$main| (_ BitVec 32)) (|n1__3$main.next| (_ BitVec 32)) (|j1__11$main.next| (_ BitVec 32)) (|j1__11$main| (_ BitVec 32)) (|__NONDET_INLINE_INIT__4__8$main#1| (_ BitVec 32)) (|__NONDET_INLINE_INIT__2__7$main#0| (_ BitVec 32)) (|.PC.3| Bool) (|.PC.2| Bool)) (=> (let ((.def_18 (not .PC.3)))
(let ((.def_15 (not .PC.2)))
(let ((.def_12 (not .PC.1)))
(let ((.def_10 (not .PC.0)))
(let ((.def_13 (and .def_10 .def_12)))
(let ((.def_16 (and .def_13 .def_15)))
(let ((.def_19 (and .def_16 .def_18)))
.def_19))))))) (state |.PC.0| |.PC.1| |.PC.2| |.PC.3| |i1__9$main| |j0__13$main| |__RET__$main| |j1__11$main| |n0__1$main| |i0__5$main| |k__7$main| |n1__3$main|))))
(assert (forall ((|.PC.1| Bool) (|.PC.0| Bool) (|.PC.0.next| Bool) (|.PC.1.next| Bool) (|.PC.2.next| Bool) (|.PC.3.next| Bool) (|n0__1$main| (_ BitVec 32)) (|n0__1$main.next| (_ BitVec 32)) (|k__7$main| (_ BitVec 32)) (|k__7$main.next| (_ BitVec 32)) (|i0__5$main| (_ BitVec 32)) (|i0__5$main.next| (_ BitVec 32)) (|i1__9$main.next| (_ BitVec 32)) (|i1__9$main| (_ BitVec 32)) (|j0__13$main.next| (_ BitVec 32)) (|j0__13$main| (_ BitVec 32)) (|__RET__$main.next| (_ BitVec 32)) (|__RET__$main| (_ BitVec 32)) (|n1__3$main| (_ BitVec 32)) (|n1__3$main.next| (_ BitVec 32)) (|j1__11$main.next| (_ BitVec 32)) (|j1__11$main| (_ BitVec 32)) (|__NONDET_INLINE_INIT__4__8$main#1| (_ BitVec 32)) (|__NONDET_INLINE_INIT__2__7$main#0| (_ BitVec 32)) (|.PC.3| Bool) (|.PC.2| Bool)) (=> (and (state |.PC.0| |.PC.1| |.PC.2| |.PC.3| |i1__9$main| |j0__13$main| |__RET__$main| |j1__11$main| |n0__1$main| |i0__5$main| |k__7$main| |n1__3$main|) (let ((.def_155 (and .PC.0 .PC.1)))
(let ((.def_223 (and .PC.2 .def_155)))
(let ((.def_18 (not .PC.3)))
(let ((.def_224 (and .def_18 .def_223)))
(let ((.def_118 (and .PC.1.next .PC.0.next)))
(let ((.def_218 (and .PC.2.next .def_118)))
(let ((.def_58 (not .PC.3.next)))
(let ((.def_219 (and .def_58 .def_218)))
(let ((.def_225 (and .def_219 .def_224)))
(let ((.def_71 (= n0__1$main.next n0__1$main)))
(let ((.def_69 (= k__7$main.next k__7$main)))
(let ((.def_211 (and .def_69 .def_71)))
(let ((.def_73 (= i0__5$main.next i0__5$main)))
(let ((.def_212 (and .def_73 .def_211)))
(let ((.def_36 (= i1__9$main i1__9$main.next)))
(let ((.def_213 (and .def_36 .def_212)))
(let ((.def_40 (= j0__13$main j0__13$main.next)))
(let ((.def_214 (and .def_40 .def_213)))
(let ((.def_44 (= __RET__$main __RET__$main.next)))
(let ((.def_215 (and .def_44 .def_214)))
(let ((.def_78 (= n1__3$main.next n1__3$main)))
(let ((.def_216 (and .def_78 .def_215)))
(let ((.def_48 (= j1__11$main j1__11$main.next)))
(let ((.def_217 (and .def_48 .def_216)))
(let ((.def_220 (and .def_217 .def_219)))
(let ((.def_10 (not .PC.0)))
(let ((.def_122 (and .def_10 .PC.1)))
(let ((.def_209 (and .PC.2 .def_122)))
(let ((.def_210 (and .def_18 .def_209)))
(let ((.def_221 (and .def_210 .def_220)))
(let ((.def_196 (bvadd (_ bv1 32) j0__13$main)))
(let ((.def_197 (= j0__13$main.next .def_196)))
(let ((.def_178 (bvslt j0__13$main n0__1$main)))
(let ((.def_176 (bvslt (_ bv0 32) k__7$main)))
(let ((.def_195 (and .def_176 .def_178)))
(let ((.def_198 (and .def_195 .def_197)))
(let ((.def_164 (bvadd (_ bv4294967295 32) k__7$main)))
(let ((.def_165 (= k__7$main.next .def_164)))
(let ((.def_199 (and .def_165 .def_198)))
(let ((.def_200 (and .def_71 .def_199)))
(let ((.def_201 (and .def_73 .def_200)))
(let ((.def_202 (and .def_36 .def_201)))
(let ((.def_203 (and .def_44 .def_202)))
(let ((.def_204 (and .def_78 .def_203)))
(let ((.def_205 (and .def_48 .def_204)))
(let ((.def_81 (not .PC.0.next)))
(let ((.def_51 (not .PC.1.next)))
(let ((.def_151 (and .def_51 .def_81)))
(let ((.def_152 (and .PC.2.next .def_151)))
(let ((.def_153 (and .def_58 .def_152)))
(let ((.def_206 (and .def_153 .def_205)))
(let ((.def_12 (not .PC.1)))
(let ((.def_13 (and .def_10 .def_12)))
(let ((.def_191 (and .def_13 .PC.2)))
(let ((.def_192 (and .def_18 .def_191)))
(let ((.def_207 (and .def_192 .def_206)))
(let ((.def_82 (and .PC.1.next .def_81)))
(let ((.def_188 (and .PC.2.next .def_82)))
(let ((.def_189 (and .def_58 .def_188)))
(let ((.def_177 (not .def_176)))
(let ((.def_179 (and .def_177 .def_178)))
(let ((.def_180 (and .def_69 .def_179)))
(let ((.def_181 (and .def_71 .def_180)))
(let ((.def_182 (and .def_73 .def_181)))
(let ((.def_183 (and .def_36 .def_182)))
(let ((.def_184 (and .def_40 .def_183)))
(let ((.def_185 (and .def_44 .def_184)))
(let ((.def_186 (and .def_78 .def_185)))
(let ((.def_187 (and .def_48 .def_186)))
(let ((.def_190 (and .def_187 .def_189)))
(let ((.def_193 (and .def_190 .def_192)))
(let ((.def_160 (bvadd (_ bv1 32) j1__11$main)))
(let ((.def_161 (= j1__11$main.next .def_160)))
(let ((.def_140 (bvslt j1__11$main n1__3$main)))
(let ((.def_162 (and .def_140 .def_161)))
(let ((.def_166 (and .def_162 .def_165)))
(let ((.def_167 (and .def_71 .def_166)))
(let ((.def_168 (and .def_73 .def_167)))
(let ((.def_169 (and .def_36 .def_168)))
(let ((.def_170 (and .def_40 .def_169)))
(let ((.def_171 (and .def_44 .def_170)))
(let ((.def_172 (and .def_78 .def_171)))
(let ((.def_55 (not .PC.2.next)))
(let ((.def_119 (and .def_55 .def_118)))
(let ((.def_120 (and .def_58 .def_119)))
(let ((.def_173 (and .def_120 .def_172)))
(let ((.def_15 (not .PC.2)))
(let ((.def_156 (and .def_15 .def_155)))
(let ((.def_157 (and .def_18 .def_156)))
(let ((.def_174 (and .def_157 .def_173)))
(let ((.def_142 (= j0__13$main.next (_ bv0 32))))
(let ((.def_141 (not .def_140)))
(let ((.def_143 (and .def_141 .def_142)))
(let ((.def_144 (and .def_69 .def_143)))
(let ((.def_145 (and .def_71 .def_144)))
(let ((.def_146 (and .def_73 .def_145)))
(let ((.def_147 (and .def_36 .def_146)))
(let ((.def_148 (and .def_44 .def_147)))
(let ((.def_149 (and .def_78 .def_148)))
(let ((.def_150 (and .def_48 .def_149)))
(let ((.def_154 (and .def_150 .def_153)))
(let ((.def_158 (and .def_154 .def_157)))
(let ((.def_127 (bvadd (_ bv1 32) i1__9$main)))
(let ((.def_128 (= i1__9$main.next .def_127)))
(let ((.def_107 (bvslt i1__9$main n1__3$main)))
(let ((.def_129 (and .def_107 .def_128)))
(let ((.def_95 (bvadd (_ bv1 32) k__7$main)))
(let ((.def_96 (= k__7$main.next .def_95)))
(let ((.def_130 (and .def_96 .def_129)))
(let ((.def_131 (and .def_71 .def_130)))
(let ((.def_132 (and .def_73 .def_131)))
(let ((.def_133 (and .def_40 .def_132)))
(let ((.def_134 (and .def_44 .def_133)))
(let ((.def_135 (and .def_78 .def_134)))
(let ((.def_136 (and .def_48 .def_135)))
(let ((.def_83 (and .def_55 .def_82)))
(let ((.def_84 (and .def_58 .def_83)))
(let ((.def_137 (and .def_84 .def_136)))
(let ((.def_123 (and .def_15 .def_122)))
(let ((.def_124 (and .def_18 .def_123)))
(let ((.def_138 (and .def_124 .def_137)))
(let ((.def_109 (= j1__11$main.next (_ bv0 32))))
(let ((.def_108 (not .def_107)))
(let ((.def_110 (and .def_108 .def_109)))
(let ((.def_111 (and .def_69 .def_110)))
(let ((.def_112 (and .def_71 .def_111)))
(let ((.def_113 (and .def_73 .def_112)))
(let ((.def_114 (and .def_36 .def_113)))
(let ((.def_115 (and .def_40 .def_114)))
(let ((.def_116 (and .def_44 .def_115)))
(let ((.def_117 (and .def_78 .def_116)))
(let ((.def_121 (and .def_117 .def_120)))
(let ((.def_125 (and .def_121 .def_124)))
(let ((.def_92 (bvadd (_ bv1 32) i0__5$main)))
(let ((.def_93 (= i0__5$main.next .def_92)))
(let ((.def_64 (bvslt i0__5$main n0__1$main)))
(let ((.def_94 (and .def_64 .def_93)))
(let ((.def_97 (and .def_94 .def_96)))
(let ((.def_98 (and .def_71 .def_97)))
(let ((.def_99 (and .def_36 .def_98)))
(let ((.def_100 (and .def_40 .def_99)))
(let ((.def_101 (and .def_44 .def_100)))
(let ((.def_102 (and .def_78 .def_101)))
(let ((.def_103 (and .def_48 .def_102)))
(let ((.def_53 (and .def_51 .PC.0.next)))
(let ((.def_56 (and .def_53 .def_55)))
(let ((.def_59 (and .def_56 .def_58)))
(let ((.def_104 (and .def_59 .def_103)))
(let ((.def_86 (and .PC.0 .def_12)))
(let ((.def_87 (and .def_15 .def_86)))
(let ((.def_88 (and .def_18 .def_87)))
(let ((.def_105 (and .def_88 .def_104)))
(let ((.def_66 (= i1__9$main.next (_ bv0 32))))
(let ((.def_65 (not .def_64)))
(let ((.def_67 (and .def_65 .def_66)))
(let ((.def_70 (and .def_67 .def_69)))
(let ((.def_72 (and .def_70 .def_71)))
(let ((.def_74 (and .def_72 .def_73)))
(let ((.def_75 (and .def_40 .def_74)))
(let ((.def_76 (and .def_44 .def_75)))
(let ((.def_79 (and .def_76 .def_78)))
(let ((.def_80 (and .def_48 .def_79)))
(let ((.def_85 (and .def_80 .def_84)))
(let ((.def_89 (and .def_85 .def_88)))
(let ((.def_32 (= k__7$main.next (_ bv0 32))))
(let ((.def_29 (= i0__5$main.next (_ bv0 32))))
(let ((.def_25 (= n1__3$main.next |__NONDET_INLINE_INIT__4__8$main#1|)))
(let ((.def_22 (= n0__1$main.next |__NONDET_INLINE_INIT__2__7$main#0|)))
(let ((.def_26 (and .def_22 .def_25)))
(let ((.def_30 (and .def_26 .def_29)))
(let ((.def_33 (and .def_30 .def_32)))
(let ((.def_37 (and .def_33 .def_36)))
(let ((.def_41 (and .def_37 .def_40)))
(let ((.def_45 (and .def_41 .def_44)))
(let ((.def_49 (and .def_45 .def_48)))
(let ((.def_60 (and .def_49 .def_59)))
(let ((.def_16 (and .def_13 .def_15)))
(let ((.def_19 (and .def_16 .def_18)))
(let ((.def_61 (and .def_19 .def_60)))
(let ((.def_90 (or .def_61 .def_89)))
(let ((.def_106 (or .def_90 .def_105)))
(let ((.def_126 (or .def_106 .def_125)))
(let ((.def_139 (or .def_126 .def_138)))
(let ((.def_159 (or .def_139 .def_158)))
(let ((.def_175 (or .def_159 .def_174)))
(let ((.def_194 (or .def_175 .def_193)))
(let ((.def_208 (or .def_194 .def_207)))
(let ((.def_222 (or .def_208 .def_221)))
(let ((.def_226 (or .def_222 .def_225)))
.def_226)))))))))))))))))))))))))))))))))))))))))))))))))))))))))))))))))))))))))))))))))))))))))))))))))))))))))))))))))))))))))))))))))))))))))))))))))))))))))))))))))))))))))))))))))))))))))))))) (state |.PC.0.next| |.PC.1.next| |.PC.2.next| |.PC.3.next| |i1__9$main.next| |j0__13$main.next| |__RET__$main.next| |j1__11$main.next| |n0__1$main.next| |i0__5$main.next| |k__7$main.next| |n1__3$main.next|))))
(assert (forall ((|.PC.1| Bool) (|.PC.0| Bool) (|.PC.0.next| Bool) (|.PC.1.next| Bool) (|.PC.2.next| Bool) (|.PC.3.next| Bool) (|n0__1$main| (_ BitVec 32)) (|n0__1$main.next| (_ BitVec 32)) (|k__7$main| (_ BitVec 32)) (|k__7$main.next| (_ BitVec 32)) (|i0__5$main| (_ BitVec 32)) (|i0__5$main.next| (_ BitVec 32)) (|i1__9$main.next| (_ BitVec 32)) (|i1__9$main| (_ BitVec 32)) (|j0__13$main.next| (_ BitVec 32)) (|j0__13$main| (_ BitVec 32)) (|__RET__$main.next| (_ BitVec 32)) (|__RET__$main| (_ BitVec 32)) (|n1__3$main| (_ BitVec 32)) (|n1__3$main.next| (_ BitVec 32)) (|j1__11$main.next| (_ BitVec 32)) (|j1__11$main| (_ BitVec 32)) (|__NONDET_INLINE_INIT__4__8$main#1| (_ BitVec 32)) (|__NONDET_INLINE_INIT__2__7$main#0| (_ BitVec 32)) (|.PC.3| Bool) (|.PC.2| Bool)) (=> (state |.PC.0| |.PC.1| |.PC.2| |.PC.3| |i1__9$main| |j0__13$main| |__RET__$main| |j1__11$main| |n0__1$main| |i0__5$main| |k__7$main| |n1__3$main|) (let ((.def_155 (and .PC.0 .PC.1)))
(let ((.def_223 (and .PC.2 .def_155)))
(let ((.def_18 (not .PC.3)))
(let ((.def_224 (and .def_18 .def_223)))
(let ((.def_227 (not .def_224)))
.def_227))))))))
(check-sat)
